\ Model mip1 exercise
\ LP format - for model browsing. Use MPS format to capture full model detail.
Maximize
  2 x + 5 y
Subject To
 cons1: - x + 2 y <= 2
 cons2: x + y <= 4
 cons3: x - y <= 2
Bounds
End
